101
0 82 38 100 68 89 69 72 86 48 
91 90 18 70 35 46 51 96 1 45 
5 20 78 56 84 43 88 36 6 80 
74 47 39 13 42 7 64 23 33 81 
59 16 28 76 53 27 32 65 31 83 
14 15 66 87 73 55 30 77 63 22 
29 3 34 49 19 21 44 97 2 85 
58 92 9 24 62 8 17 12 50 52 
54 94 57 11 71 4 10 37 93 75 
99 79 41 40 60 26 98 95 61 25 
67 
